17
1 0 8
2 0 11
3 0 4
3 2 10
4 0 4
4 2 18
6 3 12
6 4 19
7 0 3
7 1 23
7 4 5
8 0 11
8 1 4
8 2 7
8 3 13
8 6 22
8 7 21
9 0 3
9 2 23
9 4 16
9 5 23
9 6 13
10 1 20
10 2 14
10 3 15
10 6 15
10 8 14
10 9 8
11 1 13
11 6 9
11 10 12
12 0 15
12 1 20
12 2 21
12 4 19
12 6 3
12 10 17
13 0 7
13 6 20
13 7 3
13 8 15
13 9 18
13 10 13
13 12 23
14 1 23
14 8 17
14 9 10
14 11 5
14 13 6
15 1 16
15 2 6
15 3 7
15 4 19
15 7 21
15 8 9
15 9 7
15 13 8
15 14 4
16 0 2
16 4 3
16 8 20
16 11 13
16 13 21
16 14 1
16 15 3
